50
100
99
96
95
95
91
91
91
90
89
86
85
85
84
79
76
69
68
68
65
64
63
58
58
54
53
52
50
49
48
48
45
45
43
42
36
35
33
31
31
30
30
30
29
27
27
26
22
22
22
21
